logs/miss/qp/miss-05-30-2.lp
\ LP format - for model browsing. Use MPS format to capture full model detail.
Minimize
  x0 + x1 + x2 + x3 + x4 + x5 + x6 + x7 + x8 + x9 + x10 + x11 + x12 + x13
   + x14 + x15 + x16 + x17 + x18 + x19 + x20 + x21 + x22 + x23 + x24 + x25
   + x26 + x27 + x28 + x29 + x30 + x31 + x32 + x33 + x34 + x35 + x36 + x37
   + x38 + x39 + x40 + x41 + x42 + x43 + x44 + x45 + x46 + x47 + x48 + x49
   + x50 + x51 + x52 + x53 + x54 + x55 + x56 + x57 + x58 + x59 + x60 + x61
   + x62 + x63 + x64 + x65 + x66 + x67 + x68 + x69 + x70 + x71 + x72 + x73
   + x74 + x75 + x76 + x77 + x78 + x79 + x80 + x81 + x82 + x83 + x84 + x85
   + x86 + x87 + x88 + x89 + x90 + x91 + x92 + x93 + x94 + x95 + x96 + x97
   + x98 + x99 + x100 + x101 + x102 + x103 + x104 + x105 + x106 + x107
   + x108 + x109 + x110 + x111 + x112 + x113 + x114 + x115 + x116 + x117
   + x118 + x119 + x120 + x121 + x122 + x123 + x124 + x125 + x126 + x127
   + x128 + x129 + x130 + x131 + x132 + x133 + x134 + x135 + x136 + x137
   + x138 + x139 + x140 + x141 + x142 + x143 + x144 + x145
Subject To
 R0: x0 = 1
 qc0: [ x0 * x11 + x1 * x12 + x2 * x13 + x3 * x14 + x4 * x15 + x5 * x16
   + x6 * x17 + x7 * x18 + x8 * x19 + x9 * x20 + x10 * x21 + x11 * x22
   + x12 * x23 + x13 * x24 + x14 * x25 + x15 * x26 + x16 * x27 + x17 * x28
   + x18 * x29 + x19 * x30 + x20 * x31 + x21 * x32 + x22 * x33 + x23 * x34
   + x24 * x35 + x25 * x36 + x26 * x37 + x27 * x38 + x28 * x39 + x29 * x40
   + x30 * x41 + x31 * x42 + x32 * x43 + x33 * x44 + x34 * x45 + x35 * x46
   + x36 * x47 + x37 * x48 + x38 * x49 + x39 * x50 + x40 * x51 + x41 * x52
   + x42 * x53 + x43 * x54 + x44 * x55 + x45 * x56 + x46 * x57 + x47 * x58
   + x48 * x59 + x49 * x60 + x50 * x61 + x51 * x62 + x52 * x63 + x53 * x64
   + x54 * x65 + x55 * x66 + x56 * x67 + x57 * x68 + x58 * x69 + x59 * x70
   + x60 * x71 + x61 * x72 + x62 * x73 + x63 * x74 + x64 * x75 + x65 * x76
   + x66 * x77 + x67 * x78 + x68 * x79 + x69 * x80 + x70 * x81 + x71 * x82
   + x72 * x83 + x73 * x84 + x74 * x85 + x75 * x86 + x76 * x87 + x77 * x88
   + x78 * x89 + x79 * x90 + x80 * x91 + x81 * x92 + x82 * x93 + x83 * x94
   + x84 * x95 + x85 * x96 + x86 * x97 + x87 * x98 + x88 * x99 + x89 * x100
   + x90 * x101 + x91 * x102 + x92 * x103 + x93 * x104 + x94 * x105
   + x95 * x106 + x96 * x107 + x97 * x108 + x98 * x109 + x99 * x110
   + x100 * x111 + x101 * x112 + x102 * x113 + x103 * x114 + x104 * x115
   + x105 * x116 + x106 * x117 + x107 * x118 + x108 * x119 + x109 * x120
   + x110 * x121 + x111 * x122 + x112 * x123 + x113 * x124 + x114 * x125
   + x115 * x126 + x116 * x127 + x117 * x128 + x118 * x129 + x119 * x130
   + x120 * x131 + x121 * x132 + x122 * x133 + x123 * x134 + x124 * x135
   + x125 * x136 + x126 * x137 + x127 * x138 + x128 * x139 + x129 * x140
   + x130 * x141 + x131 * x142 + x132 * x143 + x133 * x144 + x134 * x145 ]
   >= 1
 qc1: [ x0 * x16 + x1 * x17 + x2 * x18 + x3 * x19 + x4 * x20 + x5 * x21
   + x6 * x22 + x7 * x23 + x8 * x24 + x9 * x25 + x10 * x26 + x11 * x27
   + x12 * x28 + x13 * x29 + x14 * x30 + x15 * x31 + x16 * x32 + x17 * x33
   + x18 * x34 + x19 * x35 + x20 * x36 + x21 * x37 + x22 * x38 + x23 * x39
   + x24 * x40 + x25 * x41 + x26 * x42 + x27 * x43 + x28 * x44 + x29 * x45
   + x30 * x46 + x31 * x47 + x32 * x48 + x33 * x49 + x34 * x50 + x35 * x51
   + x36 * x52 + x37 * x53 + x38 * x54 + x39 * x55 + x40 * x56 + x41 * x57
   + x42 * x58 + x43 * x59 + x44 * x60 + x45 * x61 + x46 * x62 + x47 * x63
   + x48 * x64 + x49 * x65 + x50 * x66 + x51 * x67 + x52 * x68 + x53 * x69
   + x54 * x70 + x55 * x71 + x56 * x72 + x57 * x73 + x58 * x74 + x59 * x75
   + x60 * x76 + x61 * x77 + x62 * x78 + x63 * x79 + x64 * x80 + x65 * x81
   + x66 * x82 + x67 * x83 + x68 * x84 + x69 * x85 + x70 * x86 + x71 * x87
   + x72 * x88 + x73 * x89 + x74 * x90 + x75 * x91 + x76 * x92 + x77 * x93
   + x78 * x94 + x79 * x95 + x80 * x96 + x81 * x97 + x82 * x98 + x83 * x99
   + x84 * x100 + x85 * x101 + x86 * x102 + x87 * x103 + x88 * x104
   + x89 * x105 + x90 * x106 + x91 * x107 + x92 * x108 + x93 * x109
   + x94 * x110 + x95 * x111 + x96 * x112 + x97 * x113 + x98 * x114
   + x99 * x115 + x100 * x116 + x101 * x117 + x102 * x118 + x103 * x119
   + x104 * x120 + x105 * x121 + x106 * x122 + x107 * x123 + x108 * x124
   + x109 * x125 + x110 * x126 + x111 * x127 + x112 * x128 + x113 * x129
   + x114 * x130 + x115 * x131 + x116 * x132 + x117 * x133 + x118 * x134
   + x119 * x135 + x120 * x136 + x121 * x137 + x122 * x138 + x123 * x139
   + x124 * x140 + x125 * x141 + x126 * x142 + x127 * x143 + x128 * x144
   + x129 * x145 ] >= 1
 qc2: [ x0 * x23 + x1 * x24 + x2 * x25 + x3 * x26 + x4 * x27 + x5 * x28
   + x6 * x29 + x7 * x30 + x8 * x31 + x9 * x32 + x10 * x33 + x11 * x34
   + x12 * x35 + x13 * x36 + x14 * x37 + x15 * x38 + x16 * x39 + x17 * x40
   + x18 * x41 + x19 * x42 + x20 * x43 + x21 * x44 + x22 * x45 + x23 * x46
   + x24 * x47 + x25 * x48 + x26 * x49 + x27 * x50 + x28 * x51 + x29 * x52
   + x30 * x53 + x31 * x54 + x32 * x55 + x33 * x56 + x34 * x57 + x35 * x58
   + x36 * x59 + x37 * x60 + x38 * x61 + x39 * x62 + x40 * x63 + x41 * x64
   + x42 * x65 + x43 * x66 + x44 * x67 + x45 * x68 + x46 * x69 + x47 * x70
   + x48 * x71 + x49 * x72 + x50 * x73 + x51 * x74 + x52 * x75 + x53 * x76
   + x54 * x77 + x55 * x78 + x56 * x79 + x57 * x80 + x58 * x81 + x59 * x82
   + x60 * x83 + x61 * x84 + x62 * x85 + x63 * x86 + x64 * x87 + x65 * x88
   + x66 * x89 + x67 * x90 + x68 * x91 + x69 * x92 + x70 * x93 + x71 * x94
   + x72 * x95 + x73 * x96 + x74 * x97 + x75 * x98 + x76 * x99 + x77 * x100
   + x78 * x101 + x79 * x102 + x80 * x103 + x81 * x104 + x82 * x105
   + x83 * x106 + x84 * x107 + x85 * x108 + x86 * x109 + x87 * x110
   + x88 * x111 + x89 * x112 + x90 * x113 + x91 * x114 + x92 * x115
   + x93 * x116 + x94 * x117 + x95 * x118 + x96 * x119 + x97 * x120
   + x98 * x121 + x99 * x122 + x100 * x123 + x101 * x124 + x102 * x125
   + x103 * x126 + x104 * x127 + x105 * x128 + x106 * x129 + x107 * x130
   + x108 * x131 + x109 * x132 + x110 * x133 + x111 * x134 + x112 * x135
   + x113 * x136 + x114 * x137 + x115 * x138 + x116 * x139 + x117 * x140
   + x118 * x141 + x119 * x142 + x120 * x143 + x121 * x144 + x122 * x145 ]
   >= 1
 qc3: [ x0 * x36 + x1 * x37 + x2 * x38 + x3 * x39 + x4 * x40 + x5 * x41
   + x6 * x42 + x7 * x43 + x8 * x44 + x9 * x45 + x10 * x46 + x11 * x47
   + x12 * x48 + x13 * x49 + x14 * x50 + x15 * x51 + x16 * x52 + x17 * x53
   + x18 * x54 + x19 * x55 + x20 * x56 + x21 * x57 + x22 * x58 + x23 * x59
   + x24 * x60 + x25 * x61 + x26 * x62 + x27 * x63 + x28 * x64 + x29 * x65
   + x30 * x66 + x31 * x67 + x32 * x68 + x33 * x69 + x34 * x70 + x35 * x71
   + x36 * x72 + x37 * x73 + x38 * x74 + x39 * x75 + x40 * x76 + x41 * x77
   + x42 * x78 + x43 * x79 + x44 * x80 + x45 * x81 + x46 * x82 + x47 * x83
   + x48 * x84 + x49 * x85 + x50 * x86 + x51 * x87 + x52 * x88 + x53 * x89
   + x54 * x90 + x55 * x91 + x56 * x92 + x57 * x93 + x58 * x94 + x59 * x95
   + x60 * x96 + x61 * x97 + x62 * x98 + x63 * x99 + x64 * x100
   + x65 * x101 + x66 * x102 + x67 * x103 + x68 * x104 + x69 * x105
   + x70 * x106 + x71 * x107 + x72 * x108 + x73 * x109 + x74 * x110
   + x75 * x111 + x76 * x112 + x77 * x113 + x78 * x114 + x79 * x115
   + x80 * x116 + x81 * x117 + x82 * x118 + x83 * x119 + x84 * x120
   + x85 * x121 + x86 * x122 + x87 * x123 + x88 * x124 + x89 * x125
   + x90 * x126 + x91 * x127 + x92 * x128 + x93 * x129 + x94 * x130
   + x95 * x131 + x96 * x132 + x97 * x133 + x98 * x134 + x99 * x135
   + x100 * x136 + x101 * x137 + x102 * x138 + x103 * x139 + x104 * x140
   + x105 * x141 + x106 * x142 + x107 * x143 + x108 * x144 + x109 * x145 ]
   >= 1
 qc4: [ x0 * x59 + x1 * x60 + x2 * x61 + x3 * x62 + x4 * x63 + x5 * x64
   + x6 * x65 + x7 * x66 + x8 * x67 + x9 * x68 + x10 * x69 + x11 * x70
   + x12 * x71 + x13 * x72 + x14 * x73 + x15 * x74 + x16 * x75 + x17 * x76
   + x18 * x77 + x19 * x78 + x20 * x79 + x21 * x80 + x22 * x81 + x23 * x82
   + x24 * x83 + x25 * x84 + x26 * x85 + x27 * x86 + x28 * x87 + x29 * x88
   + x30 * x89 + x31 * x90 + x32 * x91 + x33 * x92 + x34 * x93 + x35 * x94
   + x36 * x95 + x37 * x96 + x38 * x97 + x39 * x98 + x40 * x99 + x41 * x100
   + x42 * x101 + x43 * x102 + x44 * x103 + x45 * x104 + x46 * x105
   + x47 * x106 + x48 * x107 + x49 * x108 + x50 * x109 + x51 * x110
   + x52 * x111 + x53 * x112 + x54 * x113 + x55 * x114 + x56 * x115
   + x57 * x116 + x58 * x117 + x59 * x118 + x60 * x119 + x61 * x120
   + x62 * x121 + x63 * x122 + x64 * x123 + x65 * x124 + x66 * x125
   + x67 * x126 + x68 * x127 + x69 * x128 + x70 * x129 + x71 * x130
   + x72 * x131 + x73 * x132 + x74 * x133 + x75 * x134 + x76 * x135
   + x77 * x136 + x78 * x137 + x79 * x138 + x80 * x139 + x81 * x140
   + x82 * x141 + x83 * x142 + x84 * x143 + x85 * x144 + x86 * x145 ] >= 1
Bounds
Binaries
 x0 x1 x2 x3 x4 x5 x6 x7 x8 x9 x10 x11 x12 x13 x14 x15 x16 x17 x18 x19 x20
 x21 x22 x23 x24 x25 x26 x27 x28 x29 x30 x31 x32 x33 x34 x35 x36 x37 x38
 x39 x40 x41 x42 x43 x44 x45 x46 x47 x48 x49 x50 x51 x52 x53 x54 x55 x56
 x57 x58 x59 x60 x61 x62 x63 x64 x65 x66 x67 x68 x69 x70 x71 x72 x73 x74
 x75 x76 x77 x78 x79 x80 x81 x82 x83 x84 x85 x86 x87 x88 x89 x90 x91 x92
 x93 x94 x95 x96 x97 x98 x99 x100 x101 x102 x103 x104 x105 x106 x107 x108
 x109 x110 x111 x112 x113 x114 x115 x116 x117 x118 x119 x120 x121 x122 x123
 x124 x125 x126 x127 x128 x129 x130 x131 x132 x133 x134 x135 x136 x137 x138
 x139 x140 x141 x142 x143 x144 x145
End
